
  22   10
  10   10   10   10   10   10   10   10   10   10

   0   0   0   0   0   0   0   0   0   0   0  15 2 3 4 5 6 7 8 14 15 16 17 18 19 20 21 
   4  10   0   0   0   0   0   0   0   0   0   2 13 9 
   8   0   0   0   0   0   0   0   0   0  10   2 10 9 
   1   0   0   0   0   0   0   0  10   0   0   1 12 
  10   0   0  10   0   0   0   0   0   0   0   1 11 
   3   0   0   0   0   0   0   0   0   0  10   1 10 
   1   0   0   0   0   0   0  10   0   0   0   1 9 
   1   0   0   0   0   0   0   0   0   0  10   1 9 
  10   0   0  10   0   0   0   0   0   0   0   1 22
   9   0   0  10   0   0   0   0   0   0   0   1 22
   3   0   0  10   0   0   0   0   0   0   0   1 22
   7   0   0   0   0   0   0  10   0   0   0   1 22
   3   0   0   0   0   0  10   0   0   0   0   1 22
  10   0   0   0   0   0   0   0  10   0   0   1 22
   8   0   0   0  10   0   0   0   0   0   0   1 22
   4   0  10   0   0   0   0   0   0   0   0   1 22
   7  10   0   0   0   0   0   0   0   0   0   1 22
   5   0   0  10   0   0   0   0   0   0   0   1 22
   3   0   0   0   0   0   0   0  10   0   0   1 22
   6   0   0   0   0   0   0   0   0   0  10   1 22
   4   0   0   0   0   0  10   0   0   0   0   1 22
   0   0   0   0   0   0   0   0   0   0   0   0 
